interval = 60;
days = 7;
demand = [0,0,0,0,0,3,3,8,8,8,12,17,17,23,23,27,22,20,17,17,8,4,0,0,0,0,0,0,0,3,3,8,8,8,12,17,17,23,23,24,19,17,14,14,5,1,0,0,0,0,0,0,0,3,3,8,8,8,12,17,17,23,23,24,19,17,14,14,5,1,0,0,0,0,0,0,0,3,3,8,8,8,13,18,18,24,24,25,20,17,14,14,5,1,0,0,0,0,0,0,0,3,3,8,8,8,12,17,17,23,23,24,19,17,14,14,5,1,0,0,0,0,0,0,0,5,5,8,8,8,12,21,21,21,23,24,21,19,12,12,8,3,0,0,0,0,0,0,0,5,5,8,8,8,12,21,21,19,21,22,19,17,10,10,4,3,0,0];
shiftTypes = 4;
minStart = [5, 9, 13, 21];
maxStart = [8, 11, 15, 23];
minLength = [7, 7, 7, 7];
maxLength = [9, 9, 9, 9];
minDuties = 3;
maxDuties = 5;
avgMinutes = 2310;
weightUnderCover = 1;
weightOverCover = 1;
weightDutiesPerWeek = 1000;
weightShiftInstances = 60;
